* Signature: 0xfbb2618e05d499b0
NAME idol-model
ROWS
 N  OBJ
 L  c_670   
COLUMNS
    MARKER    'MARKER'                 'INTORG'
    u_0       c_670     1
    u_1       c_670     1
    u_2       c_670     1
    u_3       c_670     1
    u_4       c_670     1
    u_5       c_670     1
    u_6       c_670     1
    u_7       c_670     1
    u_8       c_670     1
    u_9       c_670     1
    u_10      c_670     1
    u_11      c_670     1
    u_12      c_670     1
    u_13      c_670     1
    u_14      c_670     1
    MARKER    'MARKER'                 'INTEND'
RHS
    RHS1      c_670     3
BOUNDS
 BV BND1      u_0     
 BV BND1      u_1     
 BV BND1      u_2     
 BV BND1      u_3     
 BV BND1      u_4     
 BV BND1      u_5     
 BV BND1      u_6     
 BV BND1      u_7     
 BV BND1      u_8     
 BV BND1      u_9     
 BV BND1      u_10    
 BV BND1      u_11    
 BV BND1      u_12    
 BV BND1      u_13    
 BV BND1      u_14    
ENDATA
